c Lingeling SAT Solver
c 
c Version ala b02aa1a04343558c4252b5f4a723be021964f652
c 
c Copyright (C) 2010-2012 Armin Biere JKU Linz Austria.
c All rights reserved.
c 
c released Sat Oct 13 14:05:26 CEST 2012
c compiled Sat Feb 16 02:48:12 EST 2013
c 
c gcc (Debian 4.4.5-8) 4.4.5
c -Wall -O3 -DNLGLOG -DNDEBUG -DNCHKSOL -DNLGLPICOSAT 
c Linux greencar2 2.6.32-5-amd64 x86_64
c 
c reading input file p61.cnf
c no embedded options
c found 'p cnf 227653 702287' header
c read 227653 variables, 702287 clauses, 1465331 literals in 0.0 seconds
c
c feature vars 227653
c feature lits.total 1465331
c feature lits.pos 780830
c feature lits.neg 684501
c feature clauses.total 702287
c feature clauses.unit 81919
c feature clauses.bin 499092
c feature clauses.trn 119876
c feature clauses.lrg 1400
c feature cog.val.min 1
c feature cog.val.avg 101320
c feature cog.val.max 217111
c feature cog.var.min 1
c feature cog.var.avg 113827
c feature cog.var.max 227652
c
c
c --abstime=0
c --acts=2
c --actavgmax=120
c --actstdmin=20
c --actstdmax=80
c --agile=23
c --bias=2
c --block=1
c --blkrtc=0
c --blkclslim=2000
c --blkocclim=2000
c --blkmaxeff=2147483647
c --blkmineff=10000000
c --blkreleff=20
c --card=0
c --cce=3
c --ccemaxeff=100000000
c --ccemineff=5000000
c --ccereleff=3
c --check=0
c --cgrclsr=1
c --cgrmaxority=20
c --cgrmaxeff=8000000
c --cgrmineff=200000
c --cgreleff=1
c --cgrexteq=1
c --cgrextand=1
c --cgrextunits=1
c --cgrextite=1
c --cgrextxor=1
c --cliff=1
c --cliffreleff=8
c --cliffmineff=10000000
c --cliffmaxeff=100000000
c --compact=0
c --decompose=1
c --defragint=10000000
c --defragfree=50
c --elim=1
c --elmrtc=0
c --elmblk=1
c --elmclslim=1000
c --elmocclim=1000
c --elmaxeff=100000000
c --elmineff=5000000
c --elmreleff=10
c --sleeponabort=0
c --exitonabort=0
c --flipping=1
c --flipint=2
c --flipdur=50
c --fliptop=1
c --force=0
c --gauss=1
c --gaussextrall=1
c --gaussmaxor=20
c --gaussexptrn=1
c --gaussmaxeff=50000000
c --gaussmineff=2000000
c --gaussreleff=2
c --gluescale=2
c --gluekeep=0
c --inprocessing=1
c --cintinc=10000
c --irrlim=20
c --lift=1
c --lftmaxeff=20000000
c --lftmineff=500000
c --lftreleff=6
c --lhbr=1
c --lkhd=1
c --clim=-1
c --mocint=1000
c --move=2
c --log=-1
c --otfs=1
c --phase=0
c --phaseneginit=0
c --plain=0
c --probe=1
c --prbasicmaxeff=100000000
c --prbasicmineff=1000000
c --prbasicreleff=10
c --prbasic=1
c --prbasicroundlim=9
c --queuemergelim=10000
c --queuefactor=833
c --queueinc=20
c --rmincpen=4
c --seed=0
c --smallirr=90
c --smallve=1
c --smallvevars=12
c --randec=1
c --randecint=1000
c --redfixed=0
c --redlbound=0
c --redlexpfac=10
c --redldoutfac=0
c --redloutinc=10000
c --redlinit=1000
c --redlinc=1000
c --redinoutinc=100
c --redlmininc=10
c --redlmaxinc=200
c --redlminrel=10
c --redlmaxrel=300
c --redlminabs=500
c --redlmaxabs=1000000
c --reduce=1
c --restart=2
c --restartint=5
c --rstinoutinc=110
c --simplify=1
c --simpdelay=100
c --simpen=4
c --sizepen=1000000
c --sizemaxpen=3
c --sortlits=0
c --syncint=111111
c --termint=122222
c --ternres=1
c --ternresrtc=0
c --trnrmineff=4000000
c --trnrmaxeff=40000000
c --trnreleff=10
c --transred=1
c --trdmineff=100000
c --trdmaxeff=2000000
c --trdreleff=10
c --unhide=1
c --unhdextstamp=1
c --unhdhbr=0
c --unhdmaxeff=20000000
c --unhdmineff=1000000
c --unhdreleff=4
c --unhdlnpr=3
c --unhdroundlim=5
c --verbose=1
c --witness=1
c [limits] no conflict limit
c [limits] simplification delayed by 100 to 100 conflicts
c 
c  seconds         irredundant          redundant clauses agility   height
c          variables clauses conflicts large binary ternary    glue         MB
c 
c *    0.0  127876   526506         0       0      0     0  63  0.0   0.0   42
c [cut-width] 170782, max 262699, min4 104412 at 75%, min10 40937 at 87%
c [decision-order] bias 1, old 1
c [queue-schedule-all-variables]
c s    0.0  127876   526506         0       0      0     0  63  0.0   0.0   42
c [simplification-1] limit hit at 100 conflicts
c [simplification-1] simplification penalty of 4
c [ternres-1] limit 4000000 with penalty 0 = 0 + 0
c [ternres-1] all 127876 free variables schedulable
c [ternres-1] 0 ternary resolvents (0 bin, 0 trn)
c [ternres-1] 24708 variables remain 19% (103168 retained)
c [gauss-1] limit 2000000 penalty 0 = 0 + 0
c [gauss-1] extracted 171678 xors of average arity 2.0
c [gauss-1] connected 343357 occurrences of 111787 variables (average 3.1)
c [gauss-1] limit 2000000 penalty 0 = 0 + 0
c [gauss-1] exported 0 unary, 0 binary and 0 ternary equations
c G    1.2  127876   502876       100     100      0     0  81 12.1 467.6   28
c d    1.5   57980   258208       100     100      0     0  81 12.1 467.6   21
c [basicprobe-1] limit 1000000 penalty 0 = 0 + 0
c [basicprobe-1-0] 5177 probes remain 9% after last round
c [basicprobe-1-0] removed 0 variables, found 4386 hbrs
c p    1.6   57980   258208       100     100   4386     0  81 12.1 467.6   25
c [cgrclsr-1] limit 200000 penalty 0 = 0 + 0
c [cgrclsr-1] all 57980 free variables schedulable
c [cgrclsr-1] fully completed congruence closure
c [lift-1] limit 500000 with penalty 0 = 0 + 0
c [lift-1] using 57980 probes 100%
c [lift-1] 57946 variables remain 100% (34 retained)
c [cliff-1] limit of 10000000 steps penalty 0 = 0 + 0
c [cliff-1] failed 0, lifted 0
c [unhide-1] limit 1000000 with penalty 0 = 0 + 0
c [unhide-1-1] 0 units, 0 failed, 21586 tauts, 0 hbrs, 47 literals
c u    2.7   57980   236622       100     100  20337     0  81 12.1 467.6   25
c [transred-1] limit 100000 with penalty 0 = 0 + 0
c t    2.7   57980   236621       100     100  20329     0  81 12.1 467.6   25
c [block-1] scheduling all variables this time
c [block-1] scheduled 57980 variables 100%
c [block-1] limit of 10000000 steps penalty 0 = 0 + 0
c [block-1] fully completed blocked clause elimination
c [block-1] transition to [ all 0 rem 0 ] state
c [block-1] eliminated 5800 blocked clauses
c k    2.9   57980   230821       100     100  20529  5600  81 12.1 467.6   21
c [cce-1] scheduling all variables this time
c [cce-1] limit of 10000000 steps penalty 0 = 0 + 0
c [cce-1] incomplete covered clause elimination 50769 not tried 88%
c [cce-1] transition to [ all 1 rem 1 ] state
c [cce-1] eliminated 2186 covered clauses
c E    3.6   57979   228635       100     100  22723  5600  81 12.1 467.6   26
c [elim-1] scheduling all variables this time
c [elim-1] scheduled 57979 variables 100%
c [elim-1] limit of 5000000 steps penalty 0 = 0 + 0
c [elim-1] incomplete variable elimination 41083 not tried 71%
c [elim-1] transition to [ all 1 rem 1 ] state
c [elim-1] eliminated 8385 = 14% variables out of 57979
c e    5.1   49594   223623       100      44  10207   467  81 12.1 467.6   26
c [phase-1] phase bias: 821 positive 18%, 3658 negative 82%
c [simplification-1] removed 78282 variables 61%
c [simplification-1] limit increments divided by 31
c [simplification-1] arithmetic increase of conflict limit interval by 322
c [simplification-1] new irredundant limit 2298898
c [simplification-1] new conflict limit 422
c [simplification-1] simplification penalty reduced to 3
c 1    5.3   49594   223623       126      70  10207   467  30 12.1 547.9   30
c 
c  seconds         irredundant          redundant clauses agility   height
c          variables clauses conflicts large binary ternary    glue         MB
c 
c blkd: 1 bces, 5800 removed, 692785 resolutions, 1963848 steps
c blkd: 11332 blocking literals 2%, 0 pure
c cces: 1 cces, 2181 eliminated, 0 ate 0%, 2181 abce 100%
c cces: 14580 probed, 1 lifted, 1 failed
c clff: 1 cliffs, 0 lifted, 0 failed
c clff: 3996 decisions, 10001845 steps
c clls: 1 sat, 0 simp, 0 freeze, 0 melt
c clls: 2167618 add, 0 assume,, 0 deref, 0 failed
c clls: 0 cassume, 0 mosat
c coll: 6 gcs, 0 rescored clauses
c cgrs: 1 count, 200007 esteps, 58468 csteps
c cgrs: 0 eqs, 0 units
c cgrs: 0 matched (0 ands 0%, 0 xors 0%, 0 ites 0%)
c cgrs: 0 simplified (0 ands 0%, 0 xors 0%, 0 ites 0%)
c cgrs: 2037 extracted (1654 ands 81%, 383 xors 19%, 0 ites 0%)
c dcps: 1 decompositions, 69896 equivalent 31%
c decs: 2684 decision, 2 random 0.075%
c decs: 0 flipped 0.000% (in 0 phases)
c elms: 1 elims, 8385 eliminated 4%
c elms: 8185 small 98%, 200 large 2%
c elms: 16746 tried small, 8185 succeeded 49%, 8561 failed 51%
c elms: 0 subsumed, 0 strengthened, 199 blocked
c elms: 163575 copies, 114838 resolutions, 316751 ipos
c elms: 2 subchks, 2 strchks
c frcs: 0 computed, 48.9 - 51.1 average min-cut range
c gaus: 1 extractions, 171678 extracted, 2.0 size, 3 max
c gaus: exported 0 units, 0 binary and 0 ternary equations
c gaus: 0 gc, 4000042 steps, 2000021 extr 50%, 2223889 elim 56%
c glue: 12.1 avg, 3.8 scaled avg
c glue: 0 maxredglue=15 (0%)
c lift: 1 phases, 204 probed (68 level1 33%, 136 level2 67%)
c lift: 0 units, 0 equivalences, 0 implications
c hbrs: 20350 hbrs = 20350 trn 100% + 0 lrg 0%, 0 sub 0%
c lrnd: 126 clauses, 125 uips 99%, 20.0 length, 12.1 glue
c ints: 15 luby (607 steps), 0 inout (0 steps)
c mins: 2516 learned lits, 0% minimized
c move: moved 7981, 2381 binary 30%, 5600 ternary 70%
c otfs: str 0 dyn (0 red, 0 irr) 0 drv 0%, 0 rst 0%
c otfs: sub 0 dyn (0 red, 0 irr)
c phas: 1 computed, 4663 set, 821 pos (18%), 3842 neg (82%)
c prbs: 1 basic, 1226 probed, 0 failed, 0 lifted
c prps: 3842744 props, 127 props/dec
c prps: 9% srch, 91% simp, 0% lkhd
c psns: 65175 searches, 686 hits, 1% hit rate
c queu: 127 new, 3 del, 20 maximum priority
c queu: 113 merged, 90 collected, 1 gcs
c queu: 126 deprioritized, 11.4 lines on average
c reds: 0 count, 0 reset, 0 acts 0%, 0 exp 0%
c reds: 0 arithmetic 0%, 0 double 0%
c rmbd: 0 removed, 0 red 0%
c rsts: 0 restarts 0%, 14 skipped 100%
c rsts: 0 kept 0.0% average 0.0%
c simp: 1 count (0 ilim 0%, 0 plim 0%, 1 clim 100%)
c trnr: 1 count, 0 bin, 0 trn, 4000000 steps
c tops: 99778 fixed 44%, 0 iterations
c trds: 2 transitive reductions, 9 removed, 0 failed
c trds: 88 nodes, 130 edges, 102282 steps
c unhd: 1 count, 1 rounds, 1253342 steps
c unhd: 0 non-trivial sccs of average size 0.0
c unhd: 0 units, 0 bin, 0 trn, 0 lrg
c unhd: 0 failed, 0 stamp, 0 lits, 0 bin, 0 trn, 0 lrg
c unhd: 21586 tauts, 0 bin 0%, 0 trn 0%, 0 lrg 0%
c unhd: 21586 tauts, 21586 stamp 100%, 0 red 0%
c unhd: 0 hbrs, 0 trn 0%, 0 lrg 0%, 0 red 0%
c unhd: 47 strd, 0 bin 0%, 0 trn 0%, 47 lrg 100%, 47 red 100%
c vars: 49594 remaining 22% and 178059 removed 78% out of 227653
c vars: 99778 fixed 44%, 8385 eliminated 4%, 69896 equivalent 31%
c vsts: 17499489 visits, 7% srch, 93% simp, 0% lkhd
c vsts: 3.4 search visits per propagation 9298.7 per conflict
c wchs: 4738783 pushed, 2346200 enlarged, 10 defrags
c 
c scaledglue  added       reduced       forcing      resolved     conflicts
c 
c all       126 100         0 100       128 100       126 100         0 100
c 
c  0          0   0         0   0<        0   0         0   0         0   0<
c  1          4   3         0   0         4   3         4   3         0   0 
c  2          5   4         0   0         5   4         5   4         0   0 
c  3         23  18         0   0        23  18        23  18         0   0 
c  4         69  55<        0   0        70  55<       69  55<        0   0 
c  5         25  20         0   0        26  20        25  20         0   0 
c  6          0   0         0   0         0   0         0   0         0   0 
c  7          0   0         0   0         0   0         0   0         0   0 
c  8          0   0         0   0         0   0         0   0         0   0 
c  9          0   0         0   0         0   0         0   0         0   0 
c 10          0   0         0   0         0   0         0   0         0   0 
c 11          0   0         0   0         0   0         0   0         0   0 
c 12          0   0         0   0         0   0         0   0         0   0 
c 13          0   0         0   0         0   0         0   0         0   0 
c 14          0   0         0   0         0   0         0   0         0   0 
c 15          0   0         0   0         0   0         0   0         0   0 
c 
c avg             3.8           0.0           3.9           3.8           0.0
c std             0.9           0.0           0.9           0.9           0.0
c 
c 2684 decisions, 126 conflicts, 23.8 conflicts/sec
c 3842744 propagations, 0.7 megaprops/sec
c 5.3 seconds, 48.5 MB
c 
c    0.000   0% analysis
c    0.236   4% block
c    0.000   0% bump
c    0.000   0% card
c    0.692  13% cce
c    0.576  11% cliff
c    0.028   1% cutwidth
c    0.004   0% decide
c    0.000   0% force
c    0.524  10% gc
c    0.172   3% cgrclsr
c    0.244   5% decomp
c    0.136   3% defrag
c    1.540  29% elim
c    1.024  19% gauss
c    0.164   3% lift
c    0.000   0% mincls
c    0.036   1% phase
c    0.108   2% probe
c    0.000   0% reduce
c    0.000   0% restart
c    0.120   2% ternres
c    0.012   0% transred
c    0.180   3% unhide
c ==================================
c    0.036   1% preprocessing     1%
c    5.172  98% inprocessing     99%
c ==================================
c    5.208  98% simplifying
c    0.000   0% lookahead
c    0.072   1% search
c ==================================
c    5.304 100% all
c
s SATISFIABLE
